
Gurobi 9.1.2 (win64, Java) logging started Tue Nov  9 15:37:58 2021

Academic license - for non-commercial use only - expires 2022-10-30
Gurobi Optimizer version 9.1.2 build v9.1.2rc0 (win64)
Thread count: 6 physical cores, 12 logical processors, using up to 12 threads
Optimize a model with 450 rows, 45000 columns and 90000 nonzeros
Model fingerprint: 0x3f95914b
Variable types: 0 continuous, 45000 integer (45000 binary)
Coefficient statistics:
  Matrix range     [1e+00, 1e+03]
  Objective range  [1e+01, 1e+03]
  Bounds range     [1e+00, 1e+00]
  RHS range        [1e+00, 2e+03]
Found heuristic solution: objective 87103.000000
Presolve removed 118 rows and 22745 columns
Presolve time: 0.67s
Presolved: 332 rows, 22255 columns, 44414 nonzeros
Variable types: 0 continuous, 22255 integer (22255 binary)
Presolve removed 0 rows and 93 columns
Presolved: 332 rows, 22162 columns, 44321 nonzeros


Root relaxation: objective 8.866430e+04, 576 iterations, 0.02 seconds

    Nodes    |    Current Node    |     Objective Bounds      |     Work
 Expl Unexpl |  Obj  Depth IntInf | Incumbent    BestBd   Gap | It/Node Time

     0     0 88664.3018    0    1 87103.0000 88664.3018  1.79%     -    0s
H    0     0                    88600.000000 88664.3018  0.07%     -    0s
H    0     0                    88645.000000 88664.3018  0.02%     -    0s

Explored 1 nodes (5130 simplex iterations) in 0.89 seconds
Thread count was 12 (of 12 available processors)

Solution count 3: 88645 88600 87103 

Optimal solution found (tolerance 1.00e-04)
Best objective 8.864500000000e+04, best bound 8.864500000000e+04, gap 0.0000%
